<number of tasks>
100

<cycle time>
1000

<order strength>
0.601


<task times>
1 236
2 55
3 78
4 271
5 42
6 248
7 155
8 131
9 54
10 127
11 92
12 267
13 247
14 47
15 112
16 248
17 106
18 125
19 243
20 62
21 107
22 84
23 44
24 304
25 50
26 165
27 39
28 94
29 193
30 228
31 256
32 48
33 79
34 104
35 71
36 67
37 139
38 169
39 212
40 218
41 180
42 60
43 69
44 125
45 97
46 205
47 135
48 79
49 72
50 206
51 37
52 204
53 81
54 257
55 79
56 218
57 128
58 58
59 285
60 61
61 125
62 187
63 154
64 56
65 125
66 315
67 93
68 195
69 67
70 132
71 101
72 61
73 196
74 24
75 82
76 198
77 94
78 115
79 150
80 86
81 61
82 60
83 114
84 128
85 162
86 190
87 116
88 116
89 136
90 222
91 68
92 76
93 72
94 165
95 244
96 283
97 40
98 90
99 22
100 127

<precedence relations>
1,17
2,45
3,29
4,29
5,7
5,8
5,9
5,11
5,14
5,15
5,16
6,10
6,12
6,13
7,17
8,17
9,17
10,45
11,29
12,42
13,42
14,18
14,19
14,52
15,28
16,20
17,21
17,22
17,23
17,24
17,25
17,26
17,27
18,42
19,44
20,28
20,52
21,29
22,42
23,29
23,34
24,30
24,44
25,87
26,31
26,32
26,33
27,79
28,30
28,31
28,33
29,37
29,38
29,39
29,40
29,41
29,61
30,42
31,42
32,35
33,35
33,44
34,36
34,43
35,45
36,45
37,52
37,62
37,84
37,91
38,67
39,64
39,65
39,78
39,91
40,65
40,67
41,59
42,45
42,46
42,47
42,48
42,49
42,50
42,51
43,66
43,67
43,68
44,45
45,53
45,54
45,55
45,56
45,57
45,58
47,59
48,71
49,86
50,78
50,91
51,69
52,77
53,62
53,70
54,62
54,63
54,75
56,60
56,67
57,69
58,61
58,62
58,64
59,63
60,89
61,65
61,66
61,67
62,68
63,66
65,68
66,70
66,81
66,83
67,69
67,70
67,71
68,89
69,73
69,75
70,72
70,73
70,74
70,77
71,72
71,75
71,76
72,89
73,79
74,78
75,80
75,82
76,79
76,92
77,85
78,82
79,86
80,81
80,83
81,84
81,88
81,94
82,84
82,85
82,86
82,87
84,89
85,90
85,92
86,93
87,94
88,91
88,92
89,95
89,96
89,97
89,98
89,99
89,100

<end>
